presolving:
(round 1, fast)       2000 del vars, 3000 del conss, 0 add conss, 1000 chg bounds, 0 chg sides, 0 chg coeffs, 0 upgd conss, 0 impls, 10406 clqs
(round 2, fast)       3000 del vars, 3000 del conss, 0 add conss, 1000 chg bounds, 0 chg sides, 0 chg coeffs, 0 upgd conss, 0 impls, 10406 clqs
   (0.1s) running MILP presolver
   (0.1s) MILP presolver found nothing
(round 3, exhaustive) 3000 del vars, 3000 del conss, 0 add conss, 1000 chg bounds, 0 chg sides, 0 chg coeffs, 10200 upgd conss, 0 impls, 10406 clqs
   (0.4s) probing: 51/10100 (0.5%) - 0 fixings, 0 aggregations, 0 implications, 0 bound changes
   (0.4s) probing aborted: 50/50 successive totally useless probings
   (0.5s) symmetry computation started: requiring (bin +, int -, cont +), (fixed: bin -, int +, cont -)
   (0.5s) no symmetry present
presolving (4 rounds: 4 fast, 2 medium, 2 exhaustive):
 3000 deleted vars, 3000 deleted constraints, 0 added constraints, 1000 tightened bounds, 0 added holes, 0 changed sides, 100 changed coefficients
 0 implications, 10406 cliques
presolved problem has 10100 variables (10100 bin, 0 int, 0 impl, 0 cont) and 10200 constraints
    100 constraints of type <knapsack>
  10100 constraints of type <setppc>
transformed objective value is always integral (scale: 1)
Presolving Time: 0.47

 time | node  | left  |LP iter|LP it/n|mem/heur|mdpt |vars |cons |rows |cuts |sepa|confs|strbr|  dualbound   | primalbound  |  gap   | compl. 
p 0.6s|     1 |     0 |     0 |     - |  clique|   0 |  10k|  10k|  10k|   0 |  0 |   0 |   0 | 4.810000e+03 | 6.378000e+03 |  32.60%| unknown
  5.4s|     1 |     0 | 10877 |     - |   150M |   0 |  10k|  10k|  10k|   0 |  0 | 102 |   0 | 5.309827e+03 | 6.378000e+03 |  20.12%| unknown
r 5.5s|     1 |     0 | 10877 |     - |shifting|   0 |  10k|  10k|  10k|   0 |  0 | 102 |   0 | 5.309827e+03 | 5.541000e+03 |   4.35%| unknown
  6.4s|     1 |     0 | 11251 |     - |   152M |   0 |  10k|  10k|  10k|  11 |  1 | 102 |   0 | 5.310533e+03 | 5.541000e+03 |   4.34%| unknown
r 6.4s|     1 |     0 | 11251 |     - |shifting|   0 |  10k|  10k|  10k|  11 |  1 | 102 |   0 | 5.310533e+03 | 5.434000e+03 |   2.32%| unknown
  6.6s|     1 |     0 | 11397 |     - |   153M |   0 |  10k|  10k|  10k|  24 |  2 | 102 |   0 | 5.310755e+03 | 5.434000e+03 |   2.32%| unknown
  6.7s|     1 |     0 | 11519 |     - |   154M |   0 |  10k|  10k|  10k|  33 |  3 | 102 |   0 | 5.310885e+03 | 5.434000e+03 |   2.32%| unknown
  7.0s|     1 |     0 | 11759 |     - |   156M |   0 |  10k|  10k|  10k|  40 |  4 | 102 |   0 | 5.311234e+03 | 5.434000e+03 |   2.31%| unknown
  7.1s|     1 |     0 | 11815 |     - |   157M |   0 |  10k|  10k|  10k|  46 |  5 | 102 |   0 | 5.311259e+03 | 5.434000e+03 |   2.31%| unknown
  7.3s|     1 |     0 | 12066 |     - |   158M |   0 |  10k|  10k|  10k|  51 |  6 | 102 |   0 | 5.311350e+03 | 5.434000e+03 |   2.31%| unknown
  7.5s|     1 |     0 | 12221 |     - |   159M |   0 |  10k|  10k|  10k|  55 |  7 | 102 |   0 | 5.311398e+03 | 5.434000e+03 |   2.31%| unknown
  7.8s|     1 |     0 | 12528 |     - |   160M |   0 |  10k|  10k|  10k|  59 |  8 | 102 |   0 | 5.311590e+03 | 5.434000e+03 |   2.30%| unknown
  8.2s|     1 |     0 | 13034 |     - |   161M |   0 |  10k|  10k|  10k|  66 |  9 | 102 |   0 | 5.311891e+03 | 5.434000e+03 |   2.30%| unknown
  8.4s|     1 |     0 | 13312 |     - |   162M |   0 |  10k|  10k|  10k|  74 | 10 | 102 |   0 | 5.312061e+03 | 5.434000e+03 |   2.30%| unknown
  8.6s|     1 |     0 | 13459 |     - |   163M |   0 |  10k|  10k|  10k|  78 | 11 | 102 |   0 | 5.312249e+03 | 5.434000e+03 |   2.29%| unknown
 time | node  | left  |LP iter|LP it/n|mem/heur|mdpt |vars |cons |rows |cuts |sepa|confs|strbr|  dualbound   | primalbound  |  gap   | compl. 
  8.7s|     1 |     0 | 13551 |     - |   164M |   0 |  10k|  10k|  10k|  82 | 12 | 102 |   0 | 5.312314e+03 | 5.434000e+03 |   2.29%| unknown
  8.7s|     1 |     0 | 13613 |     - |   166M |   0 |  10k|  10k|  10k|  85 | 13 | 102 |   0 | 5.312347e+03 | 5.434000e+03 |   2.29%| unknown
  8.8s|     1 |     0 | 13637 |     - |   167M |   0 |  10k|  10k|  10k|  86 | 14 | 102 |   0 | 5.312351e+03 | 5.434000e+03 |   2.29%| unknown
  8.9s|     1 |     0 | 13756 |     - |   168M |   0 |  10k|  10k|  10k|  88 | 15 | 102 |   0 | 5.312438e+03 | 5.434000e+03 |   2.29%| unknown
  9.0s|     1 |     0 | 13855 |     - |   169M |   0 |  10k|  10k|  10k|  91 | 16 | 102 |   0 | 5.312473e+03 | 5.434000e+03 |   2.29%| unknown
  9.1s|     1 |     0 | 13876 |     - |   170M |   0 |  10k|  10k|  10k|  93 | 17 | 102 |   0 | 5.312473e+03 | 5.434000e+03 |   2.29%| unknown
  9.2s|     1 |     0 | 14056 |     - |   171M |   0 |  10k|  10k|  10k|  95 | 18 | 102 |   0 | 5.312586e+03 | 5.434000e+03 |   2.29%| unknown
  9.3s|     1 |     0 | 14108 |     - |   172M |   0 |  10k|  10k|  10k| 100 | 19 | 102 |   0 | 5.312605e+03 | 5.434000e+03 |   2.29%| unknown
  9.4s|     1 |     0 | 14142 |     - |   173M |   0 |  10k|  10k|  10k| 102 | 20 | 102 |   0 | 5.312614e+03 | 5.434000e+03 |   2.28%| unknown
  9.5s|     1 |     0 | 14165 |     - |   173M |   0 |  10k|  10k|  10k| 105 | 21 | 102 |   0 | 5.312618e+03 | 5.434000e+03 |   2.28%| unknown
  9.5s|     1 |     0 | 14170 |     - |   173M |   0 |  10k|  10k|  10k| 106 | 22 | 102 |   0 | 5.312618e+03 | 5.434000e+03 |   2.28%| unknown
o16.7s|     1 |     0 | 25199 |     - |feaspump|   0 |  10k|  10k|  10k| 106 | 24 | 105 |   0 | 5.312618e+03 | 5.337000e+03 |   0.46%| unknown
L21.0s|     1 |     0 | 31040 |     - |    rens|   0 |  10k|  10k|  10k| 106 | 24 | 126 |   0 | 5.312618e+03 | 5.335000e+03 |   0.42%| unknown
 21.3s|     1 |     0 | 31040 |     - |   178M |   0 |  10k|9852 |  10k| 106 | 24 | 126 |   0 | 5.312618e+03 | 5.335000e+03 |   0.42%| unknown
 21.3s|     1 |     0 | 31040 |     - |   178M |   0 |  10k|9852 |9261 | 106 | 24 | 126 |   0 | 5.312618e+03 | 5.335000e+03 |   0.42%| unknown
 time | node  | left  |LP iter|LP it/n|mem/heur|mdpt |vars |cons |rows |cuts |sepa|confs|strbr|  dualbound   | primalbound  |  gap   | compl. 
 21.4s|     1 |     0 | 31040 |     - |   178M |   0 |  10k|9173 |9258 | 106 | 25 | 126 |   0 | 5.312618e+03 | 5.335000e+03 |   0.42%| unknown
(run 1, node 1) restarting after 1143 global fixings of integer variables

(restart) converted 41 cuts from the global cut pool into linear constraints

presolving:
(round 1, fast)       1143 del vars, 18 del conss, 0 add conss, 0 chg bounds, 0 chg sides, 1018 chg coeffs, 0 upgd conss, 0 impls, 9080 clqs
(round 2, exhaustive) 1143 del vars, 18 del conss, 0 add conss, 0 chg bounds, 0 chg sides, 1018 chg coeffs, 41 upgd conss, 0 impls, 9133 clqs
presolving (3 rounds: 3 fast, 2 medium, 2 exhaustive):
 1143 deleted vars, 21 deleted constraints, 0 added constraints, 0 tightened bounds, 0 added holes, 0 changed sides, 1035 changed coefficients
 0 implications, 9133 cliques
presolved problem has 8957 variables (8957 bin, 0 int, 0 impl, 0 cont) and 9134 constraints
    133 constraints of type <knapsack>
   8965 constraints of type <setppc>
      1 constraints of type <linear>
     35 constraints of type <logicor>
transformed objective value is always integral (scale: 1)
Presolving Time: 0.68
transformed 3/5 original solutions to the transformed problem space

 time | node  | left  |LP iter|LP it/n|mem/heur|mdpt |vars |cons |rows |cuts |sepa|confs|strbr|  dualbound   | primalbound  |  gap   | compl. 
 27.1s|     1 |     0 | 42240 |     - |   183M |   0 |8957 |9134 |9098 |   0 |  0 | 126 |   0 | 5.312618e+03 | 5.335000e+03 |   0.42%| unknown
 27.7s|     1 |     0 | 42240 |     - |   183M |   0 |8957 |9134 |8854 |   0 |  0 | 126 |   0 | 5.312618e+03 | 5.335000e+03 |   0.42%| unknown
 28.3s|     1 |     0 | 42794 |     - |   185M |   0 |8957 |8890 |8866 |  13 |  1 | 126 |   0 | 5.312618e+03 | 5.335000e+03 |   0.42%| unknown
 28.3s|     1 |     0 | 42794 |     - |   185M |   0 |8957 |8890 |8843 |  13 |  1 | 126 |   0 | 5.312618e+03 | 5.335000e+03 |   0.42%| unknown
 28.7s|     1 |     0 | 43127 |     - |   186M |   0 |8957 |8866 |8856 |  26 |  2 | 126 |   0 | 5.312663e+03 | 5.335000e+03 |   0.42%| unknown
 28.8s|     1 |     0 | 43127 |     - |   186M |   0 |8957 |8866 |8836 |  26 |  2 | 126 |   0 | 5.312663e+03 | 5.335000e+03 |   0.42%| unknown
 29.0s|     1 |     0 | 43220 |     - |   187M |   0 |8957 |8846 |8845 |  35 |  3 | 126 |   0 | 5.312692e+03 | 5.335000e+03 |   0.42%| unknown
 29.0s|     1 |     0 | 43220 |     - |   187M |   0 |8957 |8846 |8842 |  35 |  3 | 126 |   0 | 5.312692e+03 | 5.335000e+03 |   0.42%| unknown
 29.2s|     1 |     0 | 43369 |     - |   188M |   0 |8957 |8843 |8846 |  39 |  4 | 126 |   0 | 5.312770e+03 | 5.335000e+03 |   0.42%| unknown
 29.3s|     1 |     0 | 43369 |     - |   188M |   0 |8957 |8843 |8839 |  39 |  4 | 126 |   0 | 5.312770e+03 | 5.335000e+03 |   0.42%| unknown
 29.5s|     1 |     0 | 43400 |     - |   189M |   0 |8957 |8836 |8841 |  41 |  5 | 126 |   0 | 5.312779e+03 | 5.335000e+03 |   0.42%| unknown
 29.7s|     1 |     0 | 43443 |     - |   190M |   0 |8957 |8836 |8845 |  45 |  6 | 126 |   0 | 5.312791e+03 | 5.335000e+03 |   0.42%| unknown
 29.8s|     1 |     0 | 43443 |     - |   190M |   0 |8957 |8836 |8844 |  45 |  6 | 126 |   0 | 5.312791e+03 | 5.335000e+03 |   0.42%| unknown
 30.0s|     1 |     0 | 43486 |     - |   191M |   0 |8957 |8835 |8846 |  47 |  7 | 126 |   0 | 5.312801e+03 | 5.335000e+03 |   0.42%| unknown
 30.2s|     1 |     0 | 43563 |     - |   192M |   0 |8957 |8835 |8850 |  51 |  8 | 126 |   0 | 5.312824e+03 | 5.335000e+03 |   0.42%| unknown
 time | node  | left  |LP iter|LP it/n|mem/heur|mdpt |vars |cons |rows |cuts |sepa|confs|strbr|  dualbound   | primalbound  |  gap   | compl. 
 30.3s|     1 |     0 | 43563 |     - |   192M |   0 |8957 |8835 |8848 |  51 |  8 | 126 |   0 | 5.312824e+03 | 5.335000e+03 |   0.42%| unknown
 30.4s|     1 |     0 | 43594 |     - |   193M |   0 |8957 |8833 |8852 |  55 |  9 | 126 |   0 | 5.312834e+03 | 5.335000e+03 |   0.42%| unknown
 30.5s|     1 |     0 | 43594 |     - |   193M |   0 |8957 |8833 |8851 |  55 |  9 | 126 |   0 | 5.312834e+03 | 5.335000e+03 |   0.42%| unknown
 30.7s|     1 |     0 | 43663 |     - |   194M |   0 |8957 |8832 |8853 |  57 | 10 | 126 |   0 | 5.312856e+03 | 5.335000e+03 |   0.42%| unknown
 30.8s|     1 |     0 | 43663 |     - |   194M |   0 |8957 |8832 |8851 |  57 | 10 | 126 |   0 | 5.312856e+03 | 5.335000e+03 |   0.42%| unknown
 30.8s|     1 |     0 | 43673 |     - |   194M |   0 |8957 |8830 |8853 |  59 | 11 | 126 |   0 | 5.312858e+03 | 5.335000e+03 |   0.42%| unknown
 30.9s|     1 |     0 | 43700 |     - |   195M |   0 |8957 |8830 |8842 |  60 | 12 | 126 |   0 | 5.312863e+03 | 5.335000e+03 |   0.42%| unknown
 31.0s|     1 |     0 | 43716 |     - |   195M |   0 |8957 |8830 |8844 |  62 | 13 | 126 |   0 | 5.312864e+03 | 5.335000e+03 |   0.42%| unknown
 31.0s|     1 |     0 | 43724 |     - |   195M |   0 |8957 |8830 |8845 |  63 | 14 | 126 |   0 | 5.312864e+03 | 5.335000e+03 |   0.42%| unknown
L32.4s|     1 |     0 | 45983 |     - |    rens|   0 |8957 |8819 |8845 |  63 | 14 | 126 |   0 | 5.312864e+03 | 5.314000e+03 |   0.02%| unknown
 32.4s|     1 |     0 | 45983 |     - |   195M |   0 |8957 |8819 |8845 |  63 | 14 | 126 |   0 | 5.312864e+03 | 5.314000e+03 |   0.02%| unknown
 32.4s|     1 |     0 | 45983 |     - |   195M |   0 |8957 |8819 |1682 |  63 | 14 | 126 |   0 | 5.312864e+03 | 5.314000e+03 |   0.02%| unknown
 32.5s|     1 |     0 | 46059 |     - |   195M |   0 |8957 |1656 |1675 |  73 | 15 | 126 |   0 | 5.312880e+03 | 5.314000e+03 |   0.02%| unknown
 32.5s|     1 |     0 | 46059 |     - |   195M |   0 |8957 |1656 |1665 |  73 | 15 | 126 |   0 | 5.312880e+03 | 5.314000e+03 |   0.02%| unknown
(run 2, node 1) restarting after 7635 global fixings of integer variables

(restart) converted 49 cuts from the global cut pool into linear constraints

presolving:
(round 1, fast)       7635 del vars, 28 del conss, 0 add conss, 0 chg bounds, 1 chg sides, 275 chg coeffs, 0 upgd conss, 0 impls, 1265 clqs
   (32.6s) running MILP presolver
   (32.6s) MILP presolver found nothing
(round 2, medium)     7635 del vars, 65 del conss, 32 add conss, 0 chg bounds, 7 chg sides, 287 chg coeffs, 0 upgd conss, 0 impls, 1265 clqs
(round 3, exhaustive) 7635 del vars, 66 del conss, 32 add conss, 0 chg bounds, 8 chg sides, 287 chg coeffs, 0 upgd conss, 0 impls, 1265 clqs
(round 4, exhaustive) 7635 del vars, 66 del conss, 32 add conss, 0 chg bounds, 8 chg sides, 287 chg coeffs, 48 upgd conss, 0 impls, 1265 clqs
(round 5, medium)     7635 del vars, 67 del conss, 32 add conss, 0 chg bounds, 11 chg sides, 304 chg coeffs, 48 upgd conss, 0 impls, 1265 clqs
presolving (6 rounds: 6 fast, 5 medium, 3 exhaustive):
 7635 deleted vars, 67 deleted constraints, 32 added constraints, 0 tightened bounds, 0 added holes, 11 changed sides, 309 changed coefficients
 0 implications, 1265 cliques
presolved problem has 1322 variables (1322 bin, 0 int, 0 impl, 0 cont) and 1399 constraints
    159 constraints of type <knapsack>
   1239 constraints of type <setppc>
      1 constraints of type <linear>
transformed objective value is always integral (scale: 1)
Presolving Time: 0.75
transformed 2/6 original solutions to the transformed problem space

 time | node  | left  |LP iter|LP it/n|mem/heur|mdpt |vars |cons |rows |cuts |sepa|confs|strbr|  dualbound   | primalbound  |  gap   | compl. 
 33.1s|     1 |     0 | 51510 |     - |   196M |   0 |1322 |1399 |1398 |   0 |  0 | 126 |   0 | 5.312880e+03 | 5.314000e+03 |   0.02%| unknown
 33.1s|     1 |     0 | 51510 |     - |   196M |   0 |1322 |1399 |1215 |   0 |  0 | 126 |   0 | 5.312880e+03 | 5.314000e+03 |   0.02%| unknown
 33.1s|     1 |     0 | 51608 |     - |   196M |   0 |1322 |1216 |1205 |  10 |  1 | 126 |   0 | 5.312881e+03 | 5.314000e+03 |   0.02%| unknown
 33.2s|     1 |     0 | 51608 |     - |   196M |   0 |1322 |1216 |1196 |  10 |  1 | 126 |   0 | 5.312881e+03 | 5.314000e+03 |   0.02%| unknown
 33.2s|     1 |     0 | 51662 |     - |   196M |   0 |1322 |1188 |1200 |  14 |  2 | 126 |   0 | 5.312892e+03 | 5.314000e+03 |   0.02%| unknown
 33.2s|     1 |     0 | 51662 |     - |   196M |   0 |1322 |1188 |1198 |  14 |  2 | 126 |   0 | 5.312892e+03 | 5.314000e+03 |   0.02%| unknown
 33.2s|     1 |     0 | 51720 |     - |   196M |   0 |1322 |1186 |1203 |  19 |  3 | 126 |   0 | 5.312910e+03 | 5.314000e+03 |   0.02%| unknown
 33.2s|     1 |     0 | 51720 |     - |   196M |   0 |1322 |1186 |1197 |  19 |  3 | 126 |   0 | 5.312910e+03 | 5.314000e+03 |   0.02%| unknown
 33.3s|     1 |     0 | 51741 |     - |   196M |   0 |1322 |1180 |1200 |  22 |  4 | 126 |   0 | 5.312912e+03 | 5.314000e+03 |   0.02%| unknown
 33.3s|     1 |     0 | 51755 |     - |   197M |   0 |1322 |1180 |1204 |  26 |  5 | 126 |   0 | 5.312913e+03 | 5.314000e+03 |   0.02%| unknown
 33.3s|     1 |     0 | 51755 |     - |   197M |   0 |1322 |1180 |1203 |  26 |  5 | 126 |   0 | 5.312913e+03 | 5.314000e+03 |   0.02%| unknown
 33.3s|     1 |     0 | 51788 |     - |   197M |   0 |1322 |1179 |1205 |  28 |  6 | 126 |   0 | 5.312919e+03 | 5.314000e+03 |   0.02%| unknown
 33.3s|     1 |     0 | 51788 |     - |   197M |   0 |1322 |1179 |1205 |  28 |  6 | 126 |   0 | 5.312919e+03 | 5.314000e+03 |   0.02%| unknown
 33.3s|     1 |     0 | 51803 |     - |   197M |   0 |1322 |1179 |1209 |  32 |  7 | 126 |   0 | 5.312920e+03 | 5.314000e+03 |   0.02%| unknown
 33.4s|     1 |     0 | 51817 |     - |   197M |   0 |1322 |1179 |1211 |  34 |  8 | 126 |   0 | 5.312922e+03 | 5.314000e+03 |   0.02%| unknown
 time | node  | left  |LP iter|LP it/n|mem/heur|mdpt |vars |cons |rows |cuts |sepa|confs|strbr|  dualbound   | primalbound  |  gap   | compl. 
 33.4s|     1 |     0 | 51818 |     - |   197M |   0 |1322 |1179 |1212 |  35 |  9 | 126 |   0 | 5.312922e+03 | 5.314000e+03 |   0.02%| unknown
 33.4s|     1 |     0 | 51845 |     - |   197M |   0 |1322 |1179 |1213 |  36 | 10 | 126 |   0 | 5.312924e+03 | 5.314000e+03 |   0.02%| unknown
 33.5s|     1 |     0 | 51883 |     - |   197M |   0 |1322 |1179 |1216 |  39 | 11 | 126 |   0 | 5.312929e+03 | 5.314000e+03 |   0.02%| unknown
 33.5s|     1 |     0 | 52127 |     - |   197M |   0 |1322 | 962 |1216 |  39 | 11 | 134 |   0 | 5.314000e+03 | 5.314000e+03 |   0.00%| unknown

SCIP Status        : problem is solved [optimal solution found]
Solving Time (sec) : 33.52
Solving Nodes      : 1 (total of 3 nodes in 3 runs)
Primal Bound       : +5.31400000000000e+03 (6 solutions)
Dual Bound         : +5.31400000000000e+03
Gap                : 0.00 %
Solve Status: optimal
Solve Time: 33.53 seconds
